(set-info :smt-lib-version 2.6)
(set-logic LRA)
(set-info :source |
   Monniaux, David; Quantifier Elimination by Lazy Model Enumeration, CAV 2010
|)
(set-info :category "random")
; ./Mjollnir_examples/B1/formula_296.m
(set-info :status sat)
(assert
 (forall ((|v9:0| Real) )(exists ((|v8:1| Real) )(forall ((|v7:2| Real) )(exists ((|v6:3| Real) )(forall ((|v5:4| Real) )(exists ((|v4:5| Real) )(forall ((|v3:6| Real) )(exists ((|v2:7| Real) )(forall ((|v1:8| Real) )(exists ((|v0:9| Real) )(let ((?x173 (+ (+ (* 11 |v8:1|) (* (- 17) |v1:8|)) (* 17 |v2:7|))))
(let ((?x29 (- 3)))
(let ((?x164 (+ (+ (* 10 |v8:1|) (* 0 |v7:2|)) (* 17 |v1:8|))))
(let ((?x157 (+ (+ (* (- 4) |v6:3|) (* (- 5) |v2:7|)) (* ?x29 |v9:0|))))
(let ((?x150 (+ (+ (* (- 2) |v5:4|) (* (- 19) |v8:1|)) (* (- 1) |v0:9|))))
(let ((?x19 11))
(let ((?x144 (+ (+ (* 19 |v7:2|) (* (- 2) |v1:8|)) (* (- 5) |v7:2|))))
(let (($x167 (or (or (<= ?x144 ?x19) (<= ?x150 ?x29)) (or (<= ?x157 3) (<= ?x164 ?x29)))))
(let ((?x126 0))
(let ((?x134 (+ (+ (* ?x29 |v1:8|) (* 20 |v2:7|)) (* (- 15) |v6:3|))))
(let ((?x125 (+ (+ (* 17 |v9:0|) (* 19 |v4:5|)) (* (- 12) |v1:8|))))
(let (($x114 (<= (+ (+ (* 20 |v6:3|) |v4:5|) (* 19 |v1:8|)) ?x29)))
(let ((?x108 (+ (+ (* 5 |v2:7|) (* ?x19 |v7:2|)) (* (- 13) |v7:2|))))
(let (($x137 (or (or (<= ?x108 5) $x114) (and (<= ?x125 ?x126) (<= ?x134 ?x126)))))
(let ((?x25 (- 5)))
(let ((?x95 (+ (+ (* 2 |v7:2|) (* 2 |v4:5|)) (* 13 |v1:8|))))
(let ((?x56 (- 17)))
(let ((?x86 (+ (+ (* (- 4) |v7:2|) (* (- 1) |v8:1|)) (* (- 19) |v9:0|))))
(let (($x80 (<= (+ (+ (* ?x25 |v4:5|) (* ?x29 |v2:7|)) (* ?x19 |v4:5|)) (- 16))))
(let ((?x70 (- 19)))
(let ((?x69 (+ (+ (* (- 6) |v7:2|) (* ?x19 |v5:4|)) (* 4 |v7:2|))))
(let ((?x48 13))
(let (($x59 (<= (+ (+ (* ?x19 |v5:4|) (* 19 |v0:9|)) (* ?x56 |v6:3|)) ?x48)))
(let ((?x10 20))
(let ((?x11 (* ?x10 |v0:9|)))
(let (($x60 (and (<= (+ (+ (* ?x19 |v3:6|) (* 10 |v9:0|)) ?x11) ?x48) $x59)))
(let (($x37 (<= (+ (+ (* ?x25 |v0:9|) (* ?x29 |v5:4|)) (* (- 1) |v4:5|)) ?x10)))
(let (($x23 (<= (+ (+ ?x11 (* (- 4) |v6:3|)) (* ?x19 |v8:1|)) 4)))
(let (($x99 (and (or (or $x23 $x37) $x60) (or (or (<= ?x69 ?x70) $x80) (or (<= ?x86 ?x56) (<= ?x95 ?x25))))))
(or (and $x99 (and $x137 $x167)) (<= ?x173 3))))))))))))))))))))))))))))))))
)
)
)
)
)
)
)
)
)
)
(check-sat)
(exit)

